26417
53,103,210,269,302,334,385,391,417,426,487,599,603,768,830,1143,1189,1275,1361,1400,1457,1552,1685,1721,1800,1836,1889,1904,1936,2036,2140,2179,2331,2365,2413,2468,2554,2685,2720,2744,2852,2896,3004,3032,3120,3141,3215,3216,3234,3281,3304,3364,3367,3409,3450,3494,3599,3636,3921,3970,4026,4044,4090,4111,4131,4154,4181,4217,4226,4286,4322,4391,4440,4457,4512,4648,4657,4697,4856,4975,4991
